
Gurobi 9.5.2 (mac64[x86]) logging started Tue Mar 21 18:06:36 2023

Set parameter LogFile to value "logFiles/N-1L-45D/N-1L-6U-13F-18V-45D-a-varprod.log"
Gurobi Optimizer version 9.5.2 build v9.5.2rc0 (mac64[x86])
Thread count: 4 physical cores, 8 logical processors, using up to 8 threads
Optimize a model with 10346 rows, 14172 columns and 92601 nonzeros
Model fingerprint: 0xbf4327a6
Variable types: 368 continuous, 13804 integer (13804 binary)
Coefficient statistics:
  Matrix range     [1e+00, 2e+05]
  Objective range  [4e+01, 2e+07]
  Bounds range     [1e+00, 1e+00]
  RHS range        [1e+00, 8e+05]
Presolve removed 9205 rows and 5585 columns
Presolve time: 0.12s
Presolved: 1141 rows, 8587 columns, 56044 nonzeros
Variable types: 368 continuous, 8219 integer (8219 binary)

Root relaxation: objective 4.167782e+08, 2571 iterations, 0.09 seconds (0.11 work units)

    Nodes    |    Current Node    |     Objective Bounds      |     Work
 Expl Unexpl |  Obj  Depth IntInf | Incumbent    BestBd   Gap | It/Node Time

     0     0 4.1678e+08    0   15          - 4.1678e+08      -     -    0s
H    0     0                    4.034715e+08 4.1678e+08  3.30%     -    0s
H    0     0                    4.063110e+08 4.1678e+08  2.58%     -    0s
H    0     0                    4.069593e+08 4.1678e+08  2.41%     -    0s
H    0     0                    4.098356e+08 4.1676e+08  1.69%     -    1s
     0     0 4.1676e+08    0   16 4.0984e+08 4.1676e+08  1.69%     -    1s
H    0     0                    4.100251e+08 4.1676e+08  1.64%     -    1s
     0     0 4.1676e+08    0   15 4.1003e+08 4.1676e+08  1.64%     -    1s
     0     0 4.1676e+08    0   13 4.1003e+08 4.1676e+08  1.64%     -    1s
H    0     0                    4.103519e+08 4.1676e+08  1.56%     -    1s
     0     0 4.1676e+08    0   14 4.1035e+08 4.1676e+08  1.56%     -    1s
     0     0 4.1676e+08    0    8 4.1035e+08 4.1676e+08  1.56%     -    2s
     0     0 4.1666e+08    0   30 4.1035e+08 4.1666e+08  1.54%     -    2s
     0     0 4.1656e+08    0   19 4.1035e+08 4.1656e+08  1.51%     -    2s
     0     0 4.1656e+08    0   13 4.1035e+08 4.1656e+08  1.51%     -    2s
     0     0 4.1655e+08    0   28 4.1035e+08 4.1655e+08  1.51%     -    2s
     0     0 4.1655e+08    0   27 4.1035e+08 4.1655e+08  1.51%     -    2s
     0     0 4.1655e+08    0   28 4.1035e+08 4.1655e+08  1.51%     -    2s
     0     0 4.1655e+08    0   24 4.1035e+08 4.1655e+08  1.51%     -    2s
     0     2 4.1652e+08    0   24 4.1035e+08 4.1652e+08  1.50%     -    2s
H   79   107                    4.108717e+08 4.1651e+08  1.37%   9.1    3s
H   86   107                    4.109818e+08 4.1651e+08  1.35%   8.7    3s
H  289   291                    4.109884e+08 4.1651e+08  1.34%   5.3    4s
   290   412 4.1629e+08   52   22 4.1099e+08 4.1651e+08  1.34%   5.4    5s
H 1592  1512                    4.113662e+08 4.1651e+08  1.25%   5.9    7s
H 1594  1512                    4.113717e+08 4.1651e+08  1.25%   5.9    7s
H 1595  1697                    4.115989e+08 4.1651e+08  1.19%   5.9    7s
  2604  2451 4.1378e+08  289   16 4.1160e+08 4.1651e+08  1.19%   5.6   10s
H 2624  2342                    4.116001e+08 4.1630e+08  1.14%   7.2   14s
  2626  2343 4.1350e+08  286    9 4.1160e+08 4.1630e+08  1.14%   7.2   15s
H 2671  2260                    4.116001e+08 4.1622e+08  1.12%   9.1   19s
  2856  2385 4.1604e+08   49   15 4.1160e+08 4.1622e+08  1.12%  10.0   20s
H 3760  2851                    4.116324e+08 4.1622e+08  1.12%  12.8   21s
  6160  4053 4.1488e+08  220    6 4.1163e+08 4.1621e+08  1.11%  12.8   25s
H 6659  4121                    4.116350e+08 4.1621e+08  1.11%  12.4   25s
H 8044  4759                    4.116827e+08 4.1621e+08  1.10%  11.5   27s
H 9236  5928                    4.116827e+08 4.1621e+08  1.10%  10.6   28s
 10619  7860 4.1609e+08   59   56 4.1168e+08 4.1620e+08  1.10%  10.3   32s
 12075  9997 4.1541e+08  256   11 4.1168e+08 4.1620e+08  1.10%  11.2   35s

Cutting planes:
  Gomory: 6
  Lift-and-project: 9
  Cover: 16
  Implied bound: 1
  MIR: 11
  Flow cover: 15
  GUB cover: 4
  RLT: 1
  Relax-and-lift: 4

Explored 14968 nodes (161111 simplex iterations) in 35.67 seconds (49.35 work units)
Thread count was 8 (of 8 available processors)

Solution count 10: 4.11683e+08 4.11683e+08 4.11635e+08 ... 4.10988e+08

Solve interrupted
Best objective 4.116827050618e+08, best bound 4.161965360952e+08, gap 1.0964%

Gurobi 9.5.2 (mac64[x86]) logging started Tue Mar 21 18:38:17 2023

Set parameter LogFile to value "logFiles/N-1L-45D/N-1L-6U-13F-18V-45D-a-varprod.log"
Gurobi Optimizer version 9.5.2 build v9.5.2rc0 (mac64[x86])
Thread count: 4 physical cores, 8 logical processors, using up to 8 threads
Optimize a model with 10346 rows, 14172 columns and 92857 nonzeros
Model fingerprint: 0xc1a212e7
Variable types: 368 continuous, 13804 integer (13804 binary)
Coefficient statistics:
  Matrix range     [1e+00, 2e+05]
  Objective range  [4e+01, 2e+07]
  Bounds range     [1e+00, 1e+00]
  RHS range        [1e+00, 8e+05]
Presolve removed 8932 rows and 6098 columns
Presolve time: 0.04s

Explored 0 nodes (0 simplex iterations) in 0.06 seconds (0.04 work units)
Thread count was 1 (of 8 available processors)

Solution count 0

Model is infeasible or unbounded
Best objective -, best bound -, gap -

Computing Irreducible Inconsistent Subsystem (IIS)...

           Constraints          |            Bounds           |  Runtime
      Min       Max     Guess   |   Min       Max     Guess   |
--------------------------------------------------------------------------
        0      2728         -         0       368         -           0s
       19       346        40         0        19         -           5s
       47        47         -         4         4         -           9s

IIS computed: 47 constraints, 4 bounds
IIS runtime: 9.42 seconds (2.33 work units)

Gurobi 9.5.2 (mac64[x86]) logging started Tue Mar 21 18:42:47 2023

Set parameter LogFile to value "logFiles/N-1L-45D/N-1L-6U-13F-18V-45D-a-varprod.log"
Gurobi Optimizer version 9.5.2 build v9.5.2rc0 (mac64[x86])
Thread count: 4 physical cores, 8 logical processors, using up to 8 threads
Optimize a model with 10358 rows, 14172 columns and 77274 nonzeros
Model fingerprint: 0x336c5655
Variable types: 368 continuous, 13804 integer (13804 binary)
Coefficient statistics:
  Matrix range     [1e+00, 2e+05]
  Objective range  [4e+01, 2e+07]
  Bounds range     [1e+00, 1e+00]
  RHS range        [1e+00, 8e+05]
Presolve removed 9747 rows and 6112 columns
Presolve time: 0.18s
Presolved: 611 rows, 8060 columns, 44582 nonzeros
Variable types: 109 continuous, 7951 integer (7951 binary)

Root relaxation: infeasible, 454 iterations, 0.02 seconds (0.01 work units)

    Nodes    |    Current Node    |     Objective Bounds      |     Work
 Expl Unexpl |  Obj  Depth IntInf | Incumbent    BestBd   Gap | It/Node Time

     0     0 infeasible    0               - infeasible      -     -    0s

Explored 1 nodes (454 simplex iterations) in 0.24 seconds (0.18 work units)
Thread count was 8 (of 8 available processors)

Solution count 0
No other solutions better than -1e+100

Model is infeasible or unbounded
Best objective -, best bound -, gap -

Computing Irreducible Inconsistent Subsystem (IIS)...

           Constraints          |            Bounds           |  Runtime
      Min       Max     Guess   |   Min       Max     Guess   |
--------------------------------------------------------------------------
        0      2729         -         0       368         -           0s
       12       359         -         0        19         -           5s
       57       298       140         0        19         -          10s
      105       231       160         0        19         -          15s
      143       174       160         0        19         -          20s
      158       158         -         0         0         -          23s

IIS computed: 158 constraints, 0 bounds
IIS runtime: 23.20 seconds (10.58 work units)

Gurobi 9.5.2 (mac64[x86]) logging started Tue Mar 21 18:56:15 2023

Set parameter LogFile to value "logFiles/N-1L-45D/N-1L-6U-13F-18V-45D-a-varprod.log"
Gurobi Optimizer version 9.5.2 build v9.5.2rc0 (mac64[x86])
Thread count: 4 physical cores, 8 logical processors, using up to 8 threads
Optimize a model with 10358 rows, 14172 columns and 77274 nonzeros
Model fingerprint: 0xdcce2386
Variable types: 368 continuous, 13804 integer (13804 binary)
Coefficient statistics:
  Matrix range     [1e+00, 2e+05]
  Objective range  [4e+01, 2e+07]
  Bounds range     [1e+00, 1e+00]
  RHS range        [1e+00, 8e+05]
Presolve removed 9743 rows and 6109 columns
Presolve time: 0.15s
Presolved: 615 rows, 8063 columns, 44586 nonzeros
Variable types: 109 continuous, 7954 integer (7954 binary)

Root relaxation: infeasible, 373 iterations, 0.02 seconds (0.01 work units)

    Nodes    |    Current Node    |     Objective Bounds      |     Work
 Expl Unexpl |  Obj  Depth IntInf | Incumbent    BestBd   Gap | It/Node Time

     0     0 infeasible    0               - infeasible      -     -    0s

Explored 1 nodes (373 simplex iterations) in 0.22 seconds (0.16 work units)
Thread count was 8 (of 8 available processors)

Solution count 0
No other solutions better than -1e+100

Model is infeasible or unbounded
Best objective -, best bound -, gap -

Computing Irreducible Inconsistent Subsystem (IIS)...

           Constraints          |            Bounds           |  Runtime
      Min       Max     Guess   |   Min       Max     Guess   |
--------------------------------------------------------------------------
        0      2725         -         0       368         -           0s
       52       276       240         0        26         -           5s
      154       251       200         0        26         -          10s
      154       182       182         0        26         -          15s
      155       155         -         0         0         -          20s

IIS computed: 155 constraints, 0 bounds
IIS runtime: 19.65 seconds (8.18 work units)

Gurobi 9.5.2 (mac64[x86]) logging started Tue Mar 21 18:58:59 2023

Set parameter LogFile to value "logFiles/N-1L-45D/N-1L-6U-13F-18V-45D-a-varprod.log"
Gurobi Optimizer version 9.5.2 build v9.5.2rc0 (mac64[x86])
Thread count: 4 physical cores, 8 logical processors, using up to 8 threads
Optimize a model with 10346 rows, 14172 columns and 92857 nonzeros
Model fingerprint: 0xae0b76c1
Variable types: 368 continuous, 13804 integer (13804 binary)
Coefficient statistics:
  Matrix range     [1e+00, 2e+05]
  Objective range  [4e+01, 2e+07]
  Bounds range     [1e+00, 1e+00]
  RHS range        [1e+00, 8e+05]
Presolve removed 9178 rows and 5585 columns
Presolve time: 0.17s
Presolved: 1168 rows, 8587 columns, 60397 nonzeros
Variable types: 368 continuous, 8219 integer (8219 binary)
Found heuristic solution: objective 3.527571e+08

Root relaxation: objective 4.167782e+08, 2803 iterations, 0.14 seconds (0.14 work units)

    Nodes    |    Current Node    |     Objective Bounds      |     Work
 Expl Unexpl |  Obj  Depth IntInf | Incumbent    BestBd   Gap | It/Node Time

     0     0 4.1678e+08    0   15 3.5276e+08 4.1678e+08  18.1%     -    0s
H    0     0                    4.024897e+08 4.1678e+08  3.55%     -    0s
H    0     0                    4.076187e+08 4.1678e+08  2.25%     -    1s
H    0     0                    4.086658e+08 4.1678e+08  1.99%     -    1s
H    0     0                    4.089973e+08 4.1676e+08  1.90%     -    1s
     0     0 4.1676e+08    0   16 4.0900e+08 4.1676e+08  1.90%     -    1s
H    0     0                    4.097151e+08 4.1676e+08  1.72%     -    2s
H    0     0                    4.098926e+08 4.1676e+08  1.68%     -    2s
     0     0 4.1676e+08    0   18 4.0989e+08 4.1676e+08  1.68%     -    2s
     0     0 4.1676e+08    0   17 4.0989e+08 4.1676e+08  1.68%     -    2s
     0     0 4.1676e+08    0   12 4.0989e+08 4.1676e+08  1.68%     -    2s
     0     2 4.1672e+08    0    8 4.0989e+08 4.1672e+08  1.67%     -    3s
   246   273 4.1672e+08   44   15 4.0989e+08 4.1672e+08  1.67%   5.2    5s
H  260   273                    4.100857e+08 4.1672e+08  1.62%   5.3    5s
H  387   418                    4.101914e+08 4.1672e+08  1.59%   7.6    6s
H  420   418                    4.104424e+08 4.1672e+08  1.53%   7.7    6s
H 1052  1050                    4.105753e+08 4.1672e+08  1.50%   7.8    8s
H 1946  1739                    4.111051e+08 4.1672e+08  1.37%   7.7   10s
H 1955  1713                    4.111985e+08 4.1672e+08  1.34%   7.7   10s
  1983  1737 4.1672e+08   16   12 4.1120e+08 4.1672e+08  1.34%   9.7   16s
H 2975  2252                    4.114659e+08 4.1672e+08  1.28%  14.5   20s
  5535  3894 4.1477e+08  265   23 4.1147e+08 4.1672e+08  1.28%  10.7   25s
  9799  7352 4.1628e+08  104   16 4.1147e+08 4.1672e+08  1.28%   8.1   30s
 15143 11550 4.1650e+08   96   19 4.1147e+08 4.1672e+08  1.28%   6.7   35s
 18924 15039 4.1650e+08  133   33 4.1147e+08 4.1672e+08  1.28%   6.4   40s
 21088 16549 4.1197e+08  129   12 4.1147e+08 4.1672e+08  1.28%   6.4   59s

Explored 21089 nodes (140353 simplex iterations) in 60.01 seconds (54.49 work units)
Thread count was 8 (of 8 available processors)

Solution count 10: 4.11466e+08 4.11199e+08 4.11105e+08 ... 4.08997e+08

Time limit reached
Best objective 4.114659277580e+08, best bound 4.167212663866e+08, gap 1.2772%

Gurobi 9.5.2 (mac64[x86]) logging started Tue Mar 21 19:15:19 2023

Set parameter LogFile to value "logFiles/N-1L-45D/N-1L-6U-13F-18V-45D-a-varprod.log"
Gurobi Optimizer version 9.5.2 build v9.5.2rc0 (mac64[x86])
Thread count: 4 physical cores, 8 logical processors, using up to 8 threads
Optimize a model with 10346 rows, 14172 columns and 93625 nonzeros
Model fingerprint: 0xba43a392
Variable types: 368 continuous, 13804 integer (13804 binary)
Coefficient statistics:
  Matrix range     [1e+00, 2e+05]
  Objective range  [4e+01, 2e+07]
  Bounds range     [1e+00, 1e+00]
  RHS range        [1e+00, 8e+05]
Presolve removed 9037 rows and 5585 columns
Presolve time: 0.16s
Presolved: 1309 rows, 8587 columns, 61267 nonzeros
Variable types: 368 continuous, 8219 integer (8219 binary)

Root relaxation: objective 4.167782e+08, 3227 iterations, 0.17 seconds (0.16 work units)

    Nodes    |    Current Node    |     Objective Bounds      |     Work
 Expl Unexpl |  Obj  Depth IntInf | Incumbent    BestBd   Gap | It/Node Time

     0     0 4.1678e+08    0   12          - 4.1678e+08      -     -    0s
H    0     0                    4.009578e+08 4.1678e+08  3.95%     -    0s
H    0     0                    4.062306e+08 4.1678e+08  2.60%     -    0s
H    0     0                    4.075413e+08 4.1678e+08  2.27%     -    1s
     0     0 4.1676e+08    0   23 4.0754e+08 4.1676e+08  2.26%     -    1s
H    0     0                    4.093446e+08 4.1676e+08  1.81%     -    2s
     0     0 4.1676e+08    0   24 4.0934e+08 4.1676e+08  1.81%     -    2s
     0     0 4.1676e+08    0   21 4.0934e+08 4.1676e+08  1.81%     -    2s
     0     0 4.1676e+08    0   20 4.0934e+08 4.1676e+08  1.81%     -    2s
     0     2 4.1671e+08    0   20 4.0934e+08 4.1671e+08  1.80%     -    3s
H  205   263                    4.100849e+08 4.1671e+08  1.62%   5.7    4s
   547   687 4.1658e+08   98   30 4.1008e+08 4.1671e+08  1.62%   7.0    6s
H  568   687                    4.109017e+08 4.1671e+08  1.41%   6.9    6s
H  637   687                    4.110227e+08 4.1671e+08  1.38%   7.1    6s
H  708   691                    4.110691e+08 4.1671e+08  1.37%   6.9    7s
  1822  1635 4.1373e+08  155   20 4.1107e+08 4.1671e+08  1.37%   7.8   10s
H 1823  1554                    4.113851e+08 4.1671e+08  1.30%   7.8   11s
  2216  1854 4.1671e+08   55   14 4.1139e+08 4.1671e+08  1.30%  14.0   15s
H 2337  1786                    4.113851e+08 4.1671e+08  1.30%  14.2   16s
H 2342  1714                    4.114442e+08 4.1671e+08  1.28%  14.2   16s
  3512  2510 4.1670e+08   67   15 4.1144e+08 4.1671e+08  1.28%  12.8   20s
  7389  5336 4.1331e+08  263   11 4.1144e+08 4.1671e+08  1.28%   9.0   25s
H 7782  5316                    4.115705e+08 4.1671e+08  1.25%   8.8   25s
 10933  8501 4.1393e+08  337   16 4.1157e+08 4.1671e+08  1.25%   7.8   30s
 17183 14314 4.1383e+08  184   15 4.1157e+08 4.1671e+08  1.25%   7.5   35s
H18321 14278                    4.116668e+08 4.1671e+08  1.23%   7.4   35s
 21364 16818 4.1438e+08  132   20 4.1167e+08 4.1671e+08  1.23%   7.5   56s
H21366 15978                    4.117078e+08 4.1671e+08  1.22%   7.5   58s

Cutting planes:
  Gomory: 5
  Lift-and-project: 1
  Cover: 11
  Implied bound: 1
  Projected implied bound: 1
  Flow cover: 10
  GUB cover: 1
  Zero half: 1
  Relax-and-lift: 1

Explored 21375 nodes (167745 simplex iterations) in 60.05 seconds (53.22 work units)
Thread count was 8 (of 8 available processors)

Solution count 10: 4.11708e+08 4.11667e+08 4.11571e+08 ... 4.10085e+08

Time limit reached
Best objective 4.117077992105e+08, best bound 4.166081642073e+08, gap 1.1903%
